
Log for '' Clone_1 (V22.1.1.0) Tue Dec 17 19:29:28 2024


Log for 'PSC1-C1-50.lp' Clone_1 (V22.1.1.0) Tue Dec 17 20:19:15 2024

Tried aggregator 1 time.
LP Presolve eliminated 450 rows and 35150 columns.
All rows and columns eliminated.
Presolve time = 0.01 sec. (13.03 ticks)

Log for 'PSC1-C1-50.lp' Clone_1 (V22.1.1.0) Tue Dec 17 20:19:15 2024

Parallel mode: deterministic, using up to 6 threads for concurrent optimization:
 * Starting dual Simplex on 1 thread...
 * Starting primal Simplex on 1 thread...

Total time on 6 threads = 0.03 sec. (210.80 ticks)

Dual simplex solved model.

